c Lingeling SAT Solver
c 
c Version azf 92032848c138b2f33629ad24394d60a3787a1046
c 
c Copyright (C) 2010-2014 Armin Biere JKU Linz Austria.
c All rights reserved.
c 
c released Don Mai 22 22:08:00 CEST 2014
c compiled Mon Oct  6 05:55:43 PDT 2014
c 
c gcc (Ubuntu 4.8.2-19ubuntu1) 4.8.2
c -Wall -O3 -DNDBLSCR -DNLGLOG -DNDEBUG -DNCHKSOL -DNLGLPICOSAT -DNLGLDRUPLIG
c -DNLGLYALSAT
c Linux ubuntu 3.13.0-32-generic x86_64
c 
c reading input file benchmark-sat/translations/gc-zeroin.i.2-18.cnf
c no embedded options
c found 'p cnf 3798 96232' header
c read 3798 variables, 96232 clauses, 195840 literals in 0.00 seconds
c 
c  seconds         irredundant          redundant clauses agility   height
c          variables clauses conflicts large ternary binary    glue         MB
c 
c S    0.0    3798    96232         0       0      0     0   0  0.0   0.0    2
c P    1.0    2693    63762      1000     937      0 21760   5 18.5 269.9    4
c P    2.0    2693    63762      1000     937      0 21760   5 18.5 269.9    4
c S    5.0    2669    63738     22750    4163      0 21352   4 20.7  78.2    6
c S   10.0    2669    63738     90858   10976      0 21352   5 25.9  65.3    8
c S   20.0    2669    63738    232514   13823      0 21352   4 26.1  64.0   17
c S   30.0    2669    63738    371544   21462      0 21352   4 28.7  65.5   18
c S   40.0    2669    63738    496067   29981      0 21352   2 31.2  68.2   19
c S   50.0    2669    63738    623004   40131      0 21352   2 34.7  70.7   17
c S   60.0    2669    63738    727624   31520      0 21352   2 36.2  72.2   26
c S  120.0    2669    63738   1437884   62994      0 21352   2 36.5  73.9   42
c S  180.0    2669    63738   2063469   72966      0 21352   2 38.6  74.6   49
c S  240.0    2669    63738   2742546   80078      0 21352   2 38.2  75.1   58
c S  300.1    2669    63738   3301013   97804      0 21352   2 38.1  75.7   72
c S  600.0    2669    63738   5994416  121528      0 21352   2 41.9  77.8   93
c S  900.0    2669    63738   8178771  129953      0 21352   3 43.7  80.3  118
